MST05
Position Depot: Center
Horizon for Depot: Small
Position of customers: Mixt
Distribution of the demand: Small
Width of time windows: Tight
Distribution of the service: Small

VEHICLE 
NUMBER 	 CAPACITY 
 5 	 	 134 
 
CUSTOMER
CUST NO. 	 XCOORD.  	 YCOORD. 	 DEMAND 	 READY TIME 	 DUE DATE 	 SERVICE TIME 
 0 	 	 500 	 	 500 	 	 0 	 	 0 	 	 1924 	 	 0 
  1 	 	 264 	 	 387 	 	 8 	 	 1701 	 	 1811 	 	 50 
  2 	 	 916 	 	 437 	 	 9 	 	 403 	 	 462 	 	 64 
  3 	 	 869 	 	 55 	 	 6 	 	 917 	 	 1024 	 	 76 
  4 	 	 294 	 	 275 	 	 7 	 	 728 	 	 856 	 	 65 
  5 	 	 817 	 	 44 	 	 9 	 	 986 	 	 1080 	 	 90 
  6 	 	 221 	 	 411 	 	 7 	 	 1049 	 	 1219 	 	 55 
  7 	 	 236 	 	 316 	 	 7 	 	 1117 	 	 1223 	 	 86 
  8 	 	 244 	 	 318 	 	 9 	 	 483 	 	 540 	 	 91 
  9 	 	 883 	 	 425 	 	 9 	 	 605 	 	 728 	 	 61 
  10 	 	 260 	 	 381 	 	 8 	 	 124 	 	 294 	 	 100 
  11 	 	 905 	 	 493 	 	 6 	 	 289 	 	 468 	 	 56 
  12 	 	 861 	 	 132 	 	 10 	 	 1067 	 	 1156 	 	 54 
  13 	 	 972 	 	 11 	 	 6 	 	 549 	 	 747 	 	 75 
  14 	 	 862 	 	 42 	 	 9 	 	 1041 	 	 1107 	 	 69 
  15 	 	 276 	 	 301 	 	 5 	 	 956 	 	 1011 	 	 75 
  16 	 	 218 	 	 374 	 	 9 	 	 202 	 	 339 	 	 99 
  17 	 	 250 	 	 389 	 	 5 	 	 1343 	 	 1447 	 	 98 
  18 	 	 164 	 	 328 	 	 5 	 	 946 	 	 1005 	 	 66 
  19 	 	 335 	 	 449 	 	 7 	 	 1207 	 	 1396 	 	 87 
  20 	 	 246 	 	 433 	 	 5 	 	 1191 	 	 1345 	 	 66 
  21 	 	 862 	 	 365 	 	 5 	 	 1506 	 	 1670 	 	 78 
  22 	 	 520 	 	 630 	 	 5 	 	 991 	 	 1049 	 	 74 
  23 	 	 845 	 	 45 	 	 9 	 	 540 	 	 628 	 	 65 
  24 	 	 885 	 	 380 	 	 10 	 	 1595 	 	 1733 	 	 59 
  25 	 	 913 	 	 101 	 	 9 	 	 693 	 	 841 	 	 92 
  26 	 	 310 	 	 489 	 	 10 	 	 1710 	 	 1782 	 	 72 
  27 	 	 903 	 	 432 	 	 8 	 	 281 	 	 449 	 	 96 
  28 	 	 251 	 	 339 	 	 7 	 	 271 	 	 326 	 	 66 
  29 	 	 931 	 	 398 	 	 7 	 	 563 	 	 758 	 	 90 
  30 	 	 243 	 	 383 	 	 6 	 	 925 	 	 1047 	 	 63 
  31 	 	 933 	 	 434 	 	 6 	 	 768 	 	 959 	 	 94 
  32 	 	 873 	 	 35 	 	 6 	 	 1354 	 	 1437 	 	 87 
  33 	 	 835 	 	 49 	 	 5 	 	 420 	 	 617 	 	 70 
  34 	 	 712 	 	 227 	 	 5 	 	 490 	 	 545 	 	 61 
  35 	 	 902 	 	 446 	 	 9 	 	 746 	 	 907 	 	 57 
  36 	 	 802 	 	 327 	 	 8 	 	 1137 	 	 1307 	 	 93 
  37 	 	 814 	 	 70 	 	 7 	 	 1657 	 	 1714 	 	 57 
  38 	 	 961 	 	 429 	 	 10 	 	 903 	 	 989 	 	 61 
  39 	 	 259 	 	 280 	 	 5 	 	 880 	 	 952 	 	 74 
  40 	 	 908 	 	 482 	 	 5 	 	 1595 	 	 1728 	 	 84 
  41 	 	 984 	 	 485 	 	 5 	 	 407 	 	 532 	 	 86 
  42 	 	 324 	 	 458 	 	 7 	 	 1732 	 	 1904 	 	 74 
  43 	 	 933 	 	 463 	 	 7 	 	 1811 	 	 1924 	 	 75 
  44 	 	 906 	 	 90 	 	 9 	 	 1165 	 	 1346 	 	 75 
  45 	 	 918 	 	 466 	 	 6 	 	 302 	 	 461 	 	 55 
  46 	 	 165 	 	 443 	 	 9 	 	 1682 	 	 1780 	 	 99 
  47 	 	 121 	 	 317 	 	 9 	 	 1641 	 	 1694 	 	 90 
  48 	 	 997 	 	 168 	 	 7 	 	 466 	 	 657 	 	 76 
  49 	 	 881 	 	 102 	 	 5 	 	 1214 	 	 1362 	 	 65 
  50 	 	 862 	 	 112 	 	 8 	 	 555 	 	 715 	 	 77 
  51 	 	 290 	 	 992 	 	 9 	 	 518 	 	 662 	 	 70 
  52 	 	 157 	 	 612 	 	 6 	 	 1520 	 	 1677 	 	 64 
  53 	 	 519 	 	 623 	 	 7 	 	 1344 	 	 1493 	 	 68 
  54 	 	 894 	 	 23 	 	 6 	 	 635 	 	 711 	 	 59 
  55 	 	 527 	 	 83 	 	 5 	 	 899 	 	 1085 	 	 73 
  56 	 	 100 	 	 130 	 	 9 	 	 818 	 	 987 	 	 72 
  57 	 	 67 	 	 498 	 	 7 	 	 1656 	 	 1713 	 	 100 
  58 	 	 396 	 	 309 	 	 10 	 	 743 	 	 834 	 	 57 
  59 	 	 159 	 	 419 	 	 10 	 	 1456 	 	 1507 	 	 59 
  60 	 	 191 	 	 997 	 	 10 	 	 746 	 	 842 	 	 67 
  61 	 	 730 	 	 137 	 	 6 	 	 1733 	 	 1826 	 	 53 
  62 	 	 831 	 	 279 	 	 7 	 	 1674 	 	 1731 	 	 79 
  63 	 	 563 	 	 752 	 	 6 	 	 1269 	 	 1381 	 	 95 
  64 	 	 380 	 	 228 	 	 7 	 	 1603 	 	 1659 	 	 55 
  65 	 	 958 	 	 270 	 	 7 	 	 1267 	 	 1335 	 	 79 
  66 	 	 899 	 	 744 	 	 6 	 	 791 	 	 858 	 	 50 
  67 	 	 94 	 	 729 	 	 7 	 	 1000 	 	 1126 	 	 74 
  68 	 	 426 	 	 588 	 	 9 	 	 345 	 	 474 	 	 90 
  69 	 	 964 	 	 638 	 	 9 	 	 1260 	 	 1392 	 	 60 
  70 	 	 14 	 	 200 	 	 10 	 	 1804 	 	 1916 	 	 93 
  71 	 	 858 	 	 16 	 	 7 	 	 1050 	 	 1109 	 	 99 
  72 	 	 499 	 	 158 	 	 6 	 	 308 	 	 376 	 	 90 
  73 	 	 649 	 	 484 	 	 6 	 	 698 	 	 842 	 	 94 
  74 	 	 242 	 	 144 	 	 10 	 	 466 	 	 630 	 	 60 
  75 	 	 389 	 	 630 	 	 5 	 	 1155 	 	 1308 	 	 100 
  76 	 	 551 	 	 41 	 	 10 	 	 1636 	 	 1737 	 	 60 
  77 	 	 853 	 	 619 	 	 8 	 	 638 	 	 822 	 	 76 
  78 	 	 234 	 	 836 	 	 9 	 	 1371 	 	 1435 	 	 58 
  79 	 	 982 	 	 449 	 	 7 	 	 1733 	 	 1906 	 	 85 
  80 	 	 880 	 	 264 	 	 9 	 	 412 	 	 492 	 	 78 
  81 	 	 243 	 	 926 	 	 5 	 	 1365 	 	 1451 	 	 73 
  82 	 	 561 	 	 481 	 	 7 	 	 893 	 	 1010 	 	 77 
  83 	 	 661 	 	 531 	 	 7 	 	 1029 	 	 1085 	 	 90 
  84 	 	 365 	 	 229 	 	 6 	 	 1411 	 	 1595 	 	 73 
  85 	 	 931 	 	 897 	 	 8 	 	 1750 	 	 1922 	 	 75 
  86 	 	 578 	 	 597 	 	 7 	 	 174 	 	 346 	 	 99 
  87 	 	 555 	 	 167 	 	 7 	 	 765 	 	 834 	 	 87 
  88 	 	 444 	 	 164 	 	 10 	 	 486 	 	 631 	 	 78 
  89 	 	 374 	 	 764 	 	 8 	 	 1213 	 	 1278 	 	 60 
  90 	 	 794 	 	 157 	 	 10 	 	 338 	 	 496 	 	 62 
  91 	 	 834 	 	 598 	 	 10 	 	 1518 	 	 1707 	 	 68 
  92 	 	 290 	 	 532 	 	 9 	 	 342 	 	 487 	 	 59 
  93 	 	 480 	 	 173 	 	 6 	 	 852 	 	 925 	 	 100 
  94 	 	 819 	 	 991 	 	 8 	 	 602 	 	 775 	 	 85 
  95 	 	 690 	 	 664 	 	 8 	 	 642 	 	 755 	 	 92 
  96 	 	 887 	 	 38 	 	 7 	 	 1113 	 	 1174 	 	 75 
  97 	 	 697 	 	 907 	 	 7 	 	 1686 	 	 1872 	 	 92 
  98 	 	 476 	 	 144 	 	 6 	 	 531 	 	 633 	 	 61 
  99 	 	 874 	 	 119 	 	 6 	 	 456 	 	 587 	 	 77 
  100 	 	 257 	 	 927 	 	 9 	 	 1007 	 	 1076 	 	 97 
 